[3159.17, 3064.19, 3031.54, 3027.04, 3009.02, 3030.35, 3020.52, 2982.09, 2969.95, 2968.44, 2974.93, 2969.68, 2967.07, 2958.33, 2962.13, 2961.26, 2963.37, 2960.33, 2960.39, 2964.47, 2961.55, 2970.91, 2963.74, 2966.14, 2967.2, 2975.66, 2956.37, 2958.41, 2968.78, 2956.49, 2961.24, 2961.43, 2968.74, 2967.24, 2969.78, 2971.89, 2970.24, 2966.79, 2961.97, 2963.44]